Mack/Bortfeldt(2008)
Bin-Packing-Problem
BP-RG/SBSBPP/SSSCSP
Testcase-ID	8
Problem-ID	109
no_item_types	487
no_items	1282
CONTAINER_DATA (l,w,h)	587	233	1
ITEMS_DATA:
Type	x	y	z	no_items
1	58	48	1	4
2	59	46	1	4
3	59	44	1	3
4	59	43	1	2
5	50	50	1	2
6	51	49	1	4
7	55	45	1	2
8	59	41	1	3
9	55	43	1	3
10	52	45	1	2
11	54	43	1	1
12	49	47	1	2
13	50	45	1	1
14	60	37	1	4
15	56	39	1	1
16	57	38	1	3
17	47	46	1	2
18	54	40	1	1
19	48	45	1	2
20	55	39	1	1
21	59	36	1	5
22	53	40	1	2
23	54	39	1	5
24	50	42	1	5
25	54	38	1	2
26	60	34	1	1
27	55	37	1	5
28	48	42	1	2
29	49	41	1	3
30	50	40	1	3
31	52	38	1	3
32	48	41	1	3
33	49	40	1	4
34	59	33	1	3
35	55	35	1	3
36	52	37	1	2
37	50	38	1	3
38	48	39	1	2
39	49	38	1	3
40	53	35	1	4
41	50	37	1	3
42	54	34	1	1
43	47	39	1	1
44	59	31	1	2
45	48	38	1	2
46	55	33	1	6
47	49	37	1	5
48	50	36	1	1
49	45	40	1	2
50	58	31	1	2
51	46	39	1	2
52	56	32	1	2
53	51	35	1	6
54	54	33	1	3
55	52	34	1	3
56	49	36	1	3
57	46	38	1	5
58	51	34	1	3
59	54	32	1	3
60	52	33	1	3
61	49	35	1	4
62	57	30	1	3
63	52	32	1	2
64	46	36	1	2
65	57	29	1	1
66	55	30	1	2
67	50	33	1	6
68	41	40	1	1
69	42	39	1	2
70	56	29	1	1
71	58	28	1	2
72	45	36	1	4
73	49	33	1	4
74	45	35	1	5
75	49	32	1	1
76	54	29	1	5
77	52	30	1	3
78	42	37	1	5
79	45	34	1	4
80	42	36	1	5
81	60	25	1	3
82	45	33	1	2
83	51	29	1	2
84	41	36	1	3
85	59	25	1	1
86	42	35	1	2
87	43	34	1	2
88	56	26	1	5
89	44	33	1	5
90	50	29	1	2
91	58	25	1	1
92	38	38	1	3
93	48	30	1	3
94	41	35	1	2
95	53	27	1	3
96	54	26	1	1
97	39	36	1	1
98	40	35	1	3
99	50	28	1	2
100	43	32	1	3
101	55	25	1	2
102	49	28	1	1
103	57	24	1	3
104	38	36	1	1
105	39	35	1	2
106	48	28	1	2
107	42	32	1	3
108	43	31	1	2
109	38	35	1	2
110	55	24	1	3
111	41	32	1	1
112	45	29	1	3
113	42	31	1	2
114	36	36	1	3
115	38	34	1	4
116	39	33	1	2
117	44	29	1	5
118	49	26	1	3
119	41	31	1	1
120	42	30	1	1
121	36	35	1	5
122	37	34	1	1
123	38	33	1	3
124	57	22	1	6
125	39	32	1	3
126	40	31	1	2
127	35	35	1	3
128	36	34	1	2
129	47	26	1	2
130	58	21	1	4
131	38	32	1	1
132	45	27	1	1
133	39	31	1	2
134	43	28	1	4
135	48	25	1	1
136	52	23	1	2
137	35	34	1	2
138	41	29	1	1
139	44	27	1	2
140	36	33	1	3
141	37	32	1	3
142	59	20	1	2
143	38	31	1	2
144	56	21	1	3
145	42	28	1	2
146	51	23	1	3
147	39	30	1	1
148	45	26	1	3
149	58	20	1	2
150	34	34	1	2
151	55	21	1	3
152	35	33	1	4
153	48	24	1	2
154	38	30	1	1
155	42	27	1	2
156	54	21	1	4
157	47	24	1	2
158	49	23	1	3
159	34	33	1	5
160	40	28	1	3
161	35	32	1	4
162	36	31	1	3
163	42	26	1	6
164	52	21	1	2
165	42	26	1	3
166	57	19	1	5
167	47	23	1	4
168	45	24	1	1
169	49	22	1	1
170	37	29	1	2
171	38	28	1	1
172	56	19	1	3
173	38	28	1	3
174	46	23	1	2
175	35	30	1	2
176	42	25	1	6
177	36	29	1	2
178	40	26	1	5
179	49	21	1	1
180	38	27	1	4
181	41	25	1	3
182	33	31	1	3
183	44	23	1	2
184	46	22	1	1
185	42	24	1	3
186	36	28	1	4
187	42	24	1	3
188	36	28	1	4
189	50	20	1	1
190	32	31	1	2
191	33	30	1	3
192	52	19	1	5
193	47	21	1	2
194	39	25	1	3
195	51	19	1	4
196	44	22	1	4
197	37	26	1	3
198	48	20	1	3
199	40	24	1	1
200	32	30	1	3
201	48	20	1	4
202	40	24	1	2
203	33	29	1	2
204	34	28	1	3
205	38	25	1	2
206	50	19	1	6
207	35	27	1	1
208	47	20	1	1
209	49	19	1	4
210	31	30	1	3
211	58	16	1	2
212	37	25	1	1
213	44	21	1	2
214	42	22	1	2
215	46	20	1	4
216	54	17	1	4
217	38	24	1	6
218	35	26	1	2
219	43	21	1	4
220	41	22	1	2
221	36	25	1	3
222	60	15	1	1
223	31	29	1	2
224	39	23	1	2
225	32	28	1	2
226	47	19	1	2
227	33	27	1	1
228	59	15	1	1
229	52	17	1	3
230	34	26	1	3
231	49	18	1	3
232	46	19	1	4
233	38	23	1	3
234	30	29	1	3
235	31	28	1	2
236	54	16	1	3
237	32	27	1	1
238	43	20	1	3
239	37	23	1	3
240	53	16	1	1
241	30	28	1	3
242	42	20	1	4
243	38	22	1	2
244	49	17	1	3
245	46	18	1	2
246	59	14	1	2
247	33	25	1	5
248	34	24	1	3
249	51	16	1	2
250	34	24	1	2
251	37	22	1	3
252	30	27	1	3
253	54	15	1	4
254	31	26	1	3
255	40	20	1	4
256	32	25	1	2
257	38	21	1	1
258	57	14	1	2
259	42	19	1	1
260	36	22	1	2
261	44	18	1	2
262	33	24	1	2
263	36	22	1	1
264	28	28	1	5
265	56	14	1	3
266	28	28	1	2
267	29	27	1	1
268	34	23	1	3
269	52	15	1	3
270	30	26	1	4
271	52	15	1	2
272	30	26	1	4
273	37	21	1	1
274	32	24	1	2
275	45	17	1	2
276	40	19	1	1
277	38	20	1	3
278	33	23	1	3
279	28	27	1	2
280	47	16	1	2
281	30	25	1	7
282	34	22	1	4
283	44	17	1	4
284	34	22	1	3
285	37	20	1	2
286	35	21	1	3
287	27	27	1	2
288	29	25	1	2
289	38	19	1	2
290	48	15	1	1
291	36	20	1	2
292	48	15	1	4
293	36	20	1	4
294	45	16	1	3
295	34	21	1	1
296	51	14	1	2
297	42	17	1	1
298	31	23	1	3
299	32	22	1	1
300	44	16	1	4
301	32	22	1	2
302	44	16	1	1
303	37	19	1	3
304	27	26	1	2
305	35	20	1	3
306	41	17	1	6
307	58	12	1	3
308	33	21	1	3
309	49	14	1	5
310	36	19	1	1
311	31	22	1	3
312	34	20	1	2
313	40	17	1	4
314	32	21	1	5
315	28	24	1	4
316	29	23	1	3
317	37	18	1	6
318	39	17	1	3
319	30	22	1	2
320	44	15	1	3
321	31	21	1	5
322	26	25	1	3
323	38	17	1	2
324	43	15	1	2
325	28	23	1	3
326	32	20	1	2
327	29	22	1	2
328	49	13	1	2
329	42	15	1	3
330	30	21	1	4
331	45	14	1	3
332	33	19	1	2
333	27	23	1	1
334	28	22	1	1
335	44	14	1	3
336	41	15	1	2
337	36	17	1	4
338	29	21	1	1
339	38	16	1	2
340	43	14	1	4
341	30	20	1	3
342	25	24	1	1
343	46	13	1	2
344	33	18	1	4
345	27	22	1	4
346	37	16	1	2
347	31	19	1	3
348	28	21	1	4
349	39	15	1	2
350	34	17	1	1
351	48	12	1	2
352	32	18	1	6
353	36	16	1	4
354	25	23	1	3
355	26	22	1	3
356	27	21	1	1
357	47	12	1	5
358	28	20	1	2
359	31	18	1	3
360	37	15	1	3
361	24	23	1	3
362	46	12	1	2
363	25	22	1	2
364	26	21	1	3
365	32	17	1	4
366	34	16	1	1
367	32	17	1	3
368	34	16	1	1
369	36	15	1	6
370	27	20	1	1
371	36	15	1	1
372	30	18	1	4
373	27	20	1	2
374	41	13	1	4
375	38	14	1	3
376	28	19	1	3
377	48	11	1	2
378	24	22	1	1
379	33	16	1	3
380	24	22	1	4
381	31	17	1	4
382	35	15	1	4
383	40	13	1	2
384	26	20	1	3
385	47	11	1	1
386	27	19	1	3
387	32	16	1	2
388	34	15	1	3
389	39	13	1	3
390	23	22	1	1
391	28	18	1	2
392	42	12	1	1
393	25	20	1	4
394	31	16	1	3
395	45	11	1	2
396	38	13	1	3
397	26	19	1	2
398	49	10	1	4
399	35	14	1	2
400	27	18	1	2
401	22	22	1	1
402	23	21	1	4
403	30	16	1	2
404	40	12	1	3
405	32	15	1	2
406	30	16	1	1
407	28	17	1	1
408	36	13	1	2
409	31	15	1	3
410	23	20	1	2
411	46	10	1	1
412	27	17	1	4
413	24	19	1	2
414	35	13	1	3
415	25	18	1	4
416	32	14	1	2
417	37	12	1	2
418	21	21	1	2
419	44	10	1	2
420	40	11	1	2
421	22	20	1	2
422	31	14	1	4
423	24	18	1	1
424	27	16	1	2
425	39	11	1	1
426	33	13	1	2
427	25	17	1	1
428	28	15	1	5
429	21	20	1	1
430	28	15	1	2
431	22	19	1	3
432	26	16	1	2
433	41	10	1	1
434	34	12	1	3
435	37	11	1	5
436	29	14	1	5
437	27	15	1	4
438	22	18	1	2
439	36	11	1	3
440	22	18	1	1
441	26	15	1	3
442	39	10	1	1
443	20	19	1	1
444	21	18	1	1
445	27	14	1	2
446	21	18	1	1
447	27	14	1	2
448	29	13	1	1
449	25	15	1	2
450	31	12	1	2
451	24	15	1	4
452	30	12	1	4
453	21	17	1	1
454	22	16	1	1
455	27	13	1	2
456	20	17	1	4
457	21	16	1	1
458	24	14	1	2
459	33	10	1	1
460	22	15	1	1
461	18	18	1	2
462	23	14	1	3
463	21	15	1	2
464	26	12	1	2
465	28	11	1	2
466	18	17	1	4
467	19	16	1	2
468	20	15	1	1
469	18	16	1	2
470	22	13	1	2
471	19	15	1	4
472	21	13	1	2
473	17	16	1	4
474	27	10	1	5
475	17	15	1	3
476	19	13	1	2
477	16	15	1	2
478	21	11	1	2
479	15	15	1	1
480	18	12	1	3
481	19	11	1	3
482	17	12	1	4
483	20	10	1	4
484	18	11	1	3
485	14	13	1	4
486	17	10	1	1
487	13	12	1	1
